SCIP version 5.0.0 [precision: 8 byte] [memory: block] [mode: optimized] [LP solver: NONE] [GitHash: 3bbd232]
Copyright (C) 2002-2017 Konrad-Zuse-Zentrum fuer Informationstechnik Berlin (ZIB)

External codes: 
  Readline EditLine w  GNU library for command line editing (gnu.org/s/readline)
  CppAD 20160000.1     Algorithmic Differentiation of C++ algorithms developed by B. Bell (www.coin-or.org/CppAD)
  ZLIB 1.2.5           General purpose compression library by J. Gailly and M. Adler (zlib.net)
  GMP 6.1.2            GNU Multiple Precision Arithmetic Library developed by T. Granlund (gmplib.org)

user parameter file <scip.set> not found - using default parameters

read problem <../../Split_data/output/breast/3/0_sample_breast.logreg>
============

File name	:	../../Split_data/output/breast/3/0_sample_breast.logreg
Problem name 	:	0_sample_breast
Number of data	:	156
Number of var	:	33
The given data has linear dependence
17 sets of column vector are linearly dependent:
elements are all 0
elements are all 0
elements are all 0
elements are all 0
elements are all 0
elements are all 0

[dim=1] time: 0.003115
[dim=2] time: 0.00753
[dim=3] time: 0.011859
[dim=4] time: 0.015327
[dim=5] time: 0.017264
[dim=6] time: 0.019101
[dim=7] time: 0.020742
[dim=8] time: 0.02227
[dim=9] Time of forward = 0.023779sec.
AIC: 118.495
k: 8

[dim=16] time: 0.004042
[dim=15] time: 0.006425
[dim=14] time: 0.00892
[dim=13] time: 0.01093
[dim=12] time: 0.013171
[dim=11] time: 0.01506
[dim=10] time: 0.017107
[dim=9] time: 0.01845
[dim=8] time: 0.01949
[dim=7] Time of backward = 0.02044sec.
AIC: 118.495
k: 8
